p cnf 43 143
20 17 21 0
20 -17 -21 0
-20 17 -21 0
-20 -17 21 0
21 8 16 3 11 0
-21 -8 0
-21 -16 0
-21 -3 0
-21 -11 0
22 10 23 0
22 -10 -23 0
-22 10 -23 0
-22 -10 23 0
23 8 16 3 11 0
-23 -8 0
-23 -16 0
-23 -3 0
-23 -11 0
24 15 25 0
24 -15 -25 0
-24 15 -25 0
-24 -15 25 0
25 8 16 3 11 0
-25 -8 0
-25 -16 0
-25 -3 0
-25 -11 0
26 8 27 0
26 -8 -27 0
-26 8 -27 0
-26 -8 27 0
27 18 17 13 10 15 1 12 9 7 5 4 2 0
-27 -18 0
-27 -17 0
-27 -13 0
-27 -10 0
-27 -15 0
-27 -1 0
-27 -12 0
-27 -9 0
-27 -7 0
-27 -5 0
-27 -4 0
-27 -2 0
28 12 29 0
28 -12 -29 0
-28 12 -29 0
-28 -12 29 0
29 8 16 3 11 0
-29 -8 0
-29 -16 0
-29 -3 0
-29 -11 0
30 11 31 0
30 -11 -31 0
-30 11 -31 0
-30 -11 31 0
31 18 17 13 10 15 1 12 9 7 5 4 2 0
-31 -18 0
-31 -17 0
-31 -13 0
-31 -10 0
-31 -15 0
-31 -1 0
-31 -12 0
-31 -9 0
-31 -7 0
-31 -5 0
-31 -4 0
-31 -2 0
32 7 33 0
32 -7 -33 0
-32 7 -33 0
-32 -7 33 0
33 8 16 3 11 0
-33 -8 0
-33 -16 0
-33 -3 0
-33 -11 0
34 13 35 0
34 -13 -35 0
-34 13 -35 0
-34 -13 35 0
35 8 16 3 11 0
-35 -8 0
-35 -16 0
-35 -3 0
-35 -11 0
36 9 37 0
36 -9 -37 0
-36 9 -37 0
-36 -9 37 0
37 8 16 3 11 0
-37 -8 0
-37 -16 0
-37 -3 0
-37 -11 0
38 2 39 0
38 -2 -39 0
-38 2 -39 0
-38 -2 39 0
39 8 16 3 11 0
-39 -8 0
-39 -16 0
-39 -3 0
-39 -11 0
40 5 41 0
40 -5 -41 0
-40 5 -41 0
-40 -5 41 0
41 8 16 3 11 0
-41 -8 0
-41 -16 0
-41 -3 0
-41 -11 0
42 18 43 0
42 -18 -43 0
-42 18 -43 0
-42 -18 43 0
43 8 16 3 11 0
-43 -8 0
-43 -16 0
-43 -3 0
-43 -11 0
20 0
22 0
24 0
26 0
28 0
30 0
32 0
34 0
36 0
38 0
1 0
40 0
14 0
3 0
4 0
16 0
6 0
42 0
19 0

Repaired dataset: ['(arg_a7_2<=>!arg_a16_6&&!arg_a6_2&&!arg_a11_2&&!arg_a1_0)', '(arg_a18_14<=>!arg_a16_6&&!arg_a6_2&&!arg_a11_2&&!arg_a1_0)', '(arg_a5_2<=>!arg_a16_6&&!arg_a6_2&&!arg_a11_2&&!arg_a1_0)', '(arg_a16_6<=>!arg_a8_6&&!arg_a7_2&&!arg_a3_2&&!arg_a18_14&&!arg_a5_2&&!arg_a0_0&&!arg_a2_0&&!arg_a17_6&&!arg_a15_6&&!arg_a13_6&&!arg_a12_2&&!arg_a10_2)', '(arg_a2_0<=>!arg_a16_6&&!arg_a6_2&&!arg_a11_2&&!arg_a1_0)', '(arg_a1_0<=>!arg_a8_6&&!arg_a7_2&&!arg_a3_2&&!arg_a18_14&&!arg_a5_2&&!arg_a0_0&&!arg_a2_0&&!arg_a17_6&&!arg_a15_6&&!arg_a13_6&&!arg_a12_2&&!arg_a10_2)', '(arg_a15_6<=>!arg_a16_6&&!arg_a6_2&&!arg_a11_2&&!arg_a1_0)', '(arg_a3_2<=>!arg_a16_6&&!arg_a6_2&&!arg_a11_2&&!arg_a1_0)', '(arg_a17_6<=>!arg_a16_6&&!arg_a6_2&&!arg_a11_2&&!arg_a1_0)', '(arg_a10_2<=>!arg_a16_6&&!arg_a6_2&&!arg_a11_2&&!arg_a1_0)', 'arg_a0_0', '(arg_a13_6<=>!arg_a16_6&&!arg_a6_2&&!arg_a11_2&&!arg_a1_0)', 'arg_a4_0', 'arg_a11_2', 'arg_a12_2', 'arg_a6_2', 'arg_a14_2', '(arg_a8_6<=>!arg_a16_6&&!arg_a6_2&&!arg_a11_2&&!arg_a1_0)', 'arg_a9_0']