p cnf 53 144
20 8 21 0
20 -8 -21 0
-20 8 -21 0
-20 -8 21 0
21 14 9 0
-21 -14 0
-21 -9 0
22 16 -7 0
22 -16 7 0
-22 16 7 0
-22 -16 -7 0
23 3 24 0
23 -3 -24 0
-23 3 -24 0
-23 -3 24 0
24 4 15 0
-24 -4 0
-24 -15 0
25 19 26 0
25 -19 -26 0
-25 19 -26 0
-25 -19 26 0
26 7 6 0
-26 -7 0
-26 -6 0
27 17 -1 0
27 -17 1 0
-27 17 1 0
-27 -17 -1 0
28 18 -2 0
28 -18 2 0
-28 18 2 0
-28 -18 -2 0
29 4 30 0
29 -4 -30 0
-29 4 -30 0
-29 -4 30 0
30 3 15 10 0
-30 -3 0
-30 -15 0
-30 -10 0
31 15 32 0
31 -15 -32 0
-31 15 -32 0
-31 -15 32 0
32 3 4 10 0
-32 -3 0
-32 -4 0
-32 -10 0
33 2 34 0
33 -2 -34 0
-33 2 -34 0
-33 -2 34 0
34 12 18 0
-34 -12 0
-34 -18 0
35 10 36 0
35 -10 -36 0
-35 10 -36 0
-35 -10 36 0
36 4 15 18 0
-36 -4 0
-36 -15 0
-36 -18 0
37 11 -13 0
37 -11 13 0
-37 11 13 0
-37 -11 -13 0
38 1 39 0
38 -1 -39 0
-38 1 -39 0
-38 -1 39 0
39 17 9 0
-39 -17 0
-39 -9 0
40 13 41 0
40 -13 -41 0
-40 13 -41 0
-40 -13 41 0
41 16 11 0
-41 -16 0
-41 -11 0
42 5 43 0
42 -5 -43 0
-42 5 -43 0
-42 -5 43 0
43 14 11 0
-43 -14 0
-43 -11 0
44 12 45 0
44 -12 -45 0
-44 12 -45 0
-44 -12 45 0
45 2 6 0
-45 -2 0
-45 -6 0
46 6 47 0
46 -6 -47 0
-46 6 -47 0
-46 -6 47 0
47 12 19 0
-47 -12 0
-47 -19 0
48 7 49 0
48 -7 -49 0
-48 7 -49 0
-48 -7 49 0
49 16 19 0
-49 -16 0
-49 -19 0
50 9 51 0
50 -9 -51 0
-50 9 -51 0
-50 -9 51 0
51 1 8 0
-51 -1 0
-51 -8 0
52 14 53 0
52 -14 -53 0
-52 14 -53 0
-52 -14 53 0
53 5 8 0
-53 -5 0
-53 -8 0
20 0
22 0
23 0
4 0
25 0
27 0
28 0
29 0
31 0
33 0
35 0
37 0
38 0
40 0
42 0
44 0
46 0
48 0
50 0
52 0
